objective value:                 0.000618338129000965
x_1_2                                               1 	(obj:0)
x_2_3                                               1 	(obj:0)
x_3_3                                               1 	(obj:0)
x_4_1                                               1 	(obj:0)
x_5_2                                               1 	(obj:0)
x_6_3                                               1 	(obj:0)
x_7_1                                               1 	(obj:0)
x_8_2                                               1 	(obj:0)
x_9_2                                               1 	(obj:0)
x_10_3                                              1 	(obj:0)
x_11_1                                              1 	(obj:0)
x_12_3                                              1 	(obj:0)
x_13_1                                              1 	(obj:0)
x_14_3                                              1 	(obj:0)
x_15_2                                              1 	(obj:0)
x_16_2                                              1 	(obj:0)
x_17_1                                              1 	(obj:0)
x_18_1                                              1 	(obj:0)
x_19_3                                              1 	(obj:0)
x_20_2                                              1 	(obj:0)
ind_1                                               1 	(obj:0)
abs_1_2                                             1 	(obj:0)
ind_2                                               1 	(obj:0)
abs_2_3                                             1 	(obj:0)
ind_3                                               1 	(obj:0)
abs_3_1                                             1 	(obj:0)
epsI                             0.000618338129000965 	(obj:1)
prodt_x_19_3_t_x_20_2_irrev2_3_2                    1 	(obj:0)
prodt_x_19_3_t_x_20_2_irrev1_3_2                    1 	(obj:0)
prodt_x_1_2_t_x_2_1_more_coh_1      0.848313412099999 	(obj:0)
prodt_x_4_1_t_x_5_1_more_coh_1            3.877273833 	(obj:0)
prodt_x_7_1_t_x_9_1_more_coh_1           3.2092061115 	(obj:0)
prodt_x_11_1_t_x_12_1_more_coh_1         2.6465157116 	(obj:0)
prodt_x_13_1_t_x_15_1_more_coh_1         1.1667265093 	(obj:0)
prodt_x_17_1_t_x_18_1_more_coh_1     1.04526846066667 	(obj:0)
prodt_x_1_2_t_x_2_2_more_coh_2           7.0680816796 	(obj:0)
prodt_x_5_2_t_x_6_2_more_coh_2           5.9982577461 	(obj:0)
prodt_x_8_2_t_x_11_2_more_coh_2          4.5509036009 	(obj:0)
prodt_x_9_2_t_x_14_2_more_coh_2          3.3968294668 	(obj:0)
prodt_x_15_2_t_x_16_2_more_coh_2         2.4768434684 	(obj:0)
prodt_x_16_2_t_x_17_2_more_coh_2         0.6982378704 	(obj:0)
prodt_x_2_3_t_x_3_3_more_coh_3           2.9863147062 	(obj:0)
prodt_x_3_3_t_x_4_3_more_coh_3           3.3750659356 	(obj:0)
prodt_x_6_3_t_x_7_3_more_coh_3           3.2803258531 	(obj:0)
prodt_x_10_3_t_x_11_3_more_coh_3         1.9909379074 	(obj:0)
prodt_x_12_3_t_x_13_3_more_coh_3         1.4896202297 	(obj:0)
prodt_x_14_3_t_x_15_3_more_coh_3         0.6107048709 	(obj:0)
prodt_x_1_2_t_x_2_2_more_irrev1_2_1     1.04864562666262 	(obj:0)
prodt_x_4_1_t_x_5_2_more_irrev1_2_1     3.40690308770345 	(obj:0)
prodt_x_5_2_t_x_7_1_more_irrev1_2_1     1.85159286345724 	(obj:0)
prodt_x_7_1_t_x_8_2_more_irrev1_2_1     1.22955810261464 	(obj:0)
prodt_x_8_2_t_x_9_1_more_irrev1_2_1     2.81647843274983 	(obj:0)
prodt_x_9_2_t_x_11_1_more_irrev1_2_1      0.7222979237971 	(obj:0)
prodt_x_11_1_t_x_13_2_more_irrev1_2_1     1.43994189295596 	(obj:0)
prodt_x_13_1_t_x_14_2_more_irrev1_2_1     1.93958059341853 	(obj:0)
prodt_x_15_2_t_x_16_1_more_irrev1_2_1    0.484803695398443 	(obj:0)
prodt_x_16_2_t_x_19_1_more_irrev1_2_1   -0.166812858982583 	(obj:0)
prodt_x_17_1_t_x_20_2_more_irrev1_2_1     0.28952194074983 	(obj:0)
prodt_x_18_1_t_x_19_2_more_irrev1_2_1                    1 	(obj:0)
prodt_x_1_2_t_x_2_2_more_irrev2_2_1    -1.04864562666262 	(obj:0)
prodt_x_4_1_t_x_5_2_more_irrev2_2_1    -3.40690308770345 	(obj:0)
prodt_x_5_2_t_x_7_1_more_irrev2_2_1    -1.85159286345724 	(obj:0)
prodt_x_7_1_t_x_8_2_more_irrev2_2_1    -1.22955810261463 	(obj:0)
prodt_x_8_2_t_x_9_1_more_irrev2_2_1    -2.81647843274983 	(obj:0)
prodt_x_9_2_t_x_11_1_more_irrev2_2_1   -0.722297923797101 	(obj:0)
prodt_x_11_1_t_x_13_2_more_irrev2_2_1    -1.43994189295596 	(obj:0)
prodt_x_13_1_t_x_14_2_more_irrev2_2_1    -1.93958059341853 	(obj:0)
prodt_x_15_2_t_x_16_1_more_irrev2_2_1   -0.484803695398443 	(obj:0)
prodt_x_16_2_t_x_19_1_more_irrev2_2_1    0.166812858982583 	(obj:0)
prodt_x_17_1_t_x_20_2_more_irrev2_2_1    -0.28952194074983 	(obj:0)
prodt_x_18_1_t_x_19_2_more_irrev2_2_1                   -1 	(obj:0)
prodt_x_1_2_t_x_2_3_more_irrev1_3_1    -1.04490023610411 	(obj:0)
prodt_x_2_3_t_x_3_1_more_irrev1_3_1    -3.99825531485364 	(obj:0)
prodt_x_3_3_t_x_4_1_more_irrev1_3_1   -0.963031788497589 	(obj:0)
prodt_x_4_1_t_x_5_3_more_irrev1_3_1    -1.24330310082626 	(obj:0)
prodt_x_6_3_t_x_7_1_more_irrev1_3_1    -3.49696778818658 	(obj:0)
prodt_x_7_1_t_x_8_3_more_irrev1_3_1     -2.4946064781891 	(obj:0)
prodt_x_10_3_t_x_12_1_more_irrev1_3_1      -1.582918912973 	(obj:0)
prodt_x_11_1_t_x_13_3_more_irrev1_3_1    -1.23865536833193 	(obj:0)
prodt_x_12_3_t_x_13_1_more_irrev1_3_1   -0.594046707658582 	(obj:0)
prodt_x_13_1_t_x_14_3_more_irrev1_3_1   -0.352000406416744 	(obj:0)
prodt_x_14_3_t_x_15_1_more_irrev1_3_1    -1.57023315957702 	(obj:0)
prodt_x_17_1_t_x_20_3_more_irrev1_3_1   -0.878052440864608 	(obj:0)
prodt_x_18_1_t_x_19_3_more_irrev1_3_1   -0.464948782287452 	(obj:0)
prodt_x_1_2_t_x_2_3_more_irrev2_3_1     1.04490023610411 	(obj:0)
prodt_x_2_3_t_x_3_1_more_irrev2_3_1     3.99825531485364 	(obj:0)
prodt_x_3_3_t_x_4_1_more_irrev2_3_1    0.963031788497591 	(obj:0)
prodt_x_4_1_t_x_5_3_more_irrev2_3_1     1.24330310082626 	(obj:0)
prodt_x_6_3_t_x_7_1_more_irrev2_3_1     3.49696778818658 	(obj:0)
prodt_x_7_1_t_x_8_3_more_irrev2_3_1      2.4946064781891 	(obj:0)
prodt_x_10_3_t_x_12_1_more_irrev2_3_1       1.582918912973 	(obj:0)
prodt_x_11_1_t_x_13_3_more_irrev2_3_1     1.23865536833193 	(obj:0)
prodt_x_12_3_t_x_13_1_more_irrev2_3_1    0.594046707658583 	(obj:0)
prodt_x_13_1_t_x_14_3_more_irrev2_3_1    0.352000406416745 	(obj:0)
prodt_x_14_3_t_x_15_1_more_irrev2_3_1     1.57023315957702 	(obj:0)
prodt_x_17_1_t_x_20_3_more_irrev2_3_1    0.878052440864608 	(obj:0)
prodt_x_18_1_t_x_19_3_more_irrev2_3_1    0.464948782287452 	(obj:0)
prodt_x_1_2_t_x_2_3_more_irrev1_3_2     1.04490023610411 	(obj:0)
prodt_x_2_3_t_x_3_2_more_irrev1_3_2   -0.045869709602445 	(obj:0)
prodt_x_3_3_t_x_4_2_more_irrev1_3_2     4.04335145118705 	(obj:0)
prodt_x_5_2_t_x_10_3_more_irrev1_3_2     3.39523272650027 	(obj:0)
prodt_x_6_3_t_x_7_2_more_irrev1_3_2     1.10386785652181 	(obj:0)
prodt_x_8_2_t_x_9_3_more_irrev1_3_2    0.473521207519541 	(obj:0)
prodt_x_9_2_t_x_11_3_more_irrev1_3_2     1.95254670887464 	(obj:0)
prodt_x_10_3_t_x_12_2_more_irrev1_3_2     1.53046953150082 	(obj:0)
prodt_x_12_3_t_x_13_2_more_irrev1_3_2     2.53415220002294 	(obj:0)
prodt_x_14_3_t_x_15_2_more_irrev1_3_2    0.420601589922131 	(obj:0)
prodt_x_15_2_t_x_20_3_more_irrev1_3_2    0.431386079700752 	(obj:0)
prodt_x_16_2_t_x_20_3_more_irrev1_3_2                    1 	(obj:0)
prodt_x_1_2_t_x_2_3_more_irrev2_3_2    -1.04490023610411 	(obj:0)
prodt_x_2_3_t_x_3_2_more_irrev2_3_2   0.0458697096024414 	(obj:0)
prodt_x_3_3_t_x_4_2_more_irrev2_3_2    -4.04335145118705 	(obj:0)
prodt_x_5_2_t_x_10_3_more_irrev2_3_2    -3.39523272650027 	(obj:0)
prodt_x_6_3_t_x_7_2_more_irrev2_3_2     -1.1038678565218 	(obj:0)
prodt_x_8_2_t_x_9_3_more_irrev2_3_2   -0.473521207519541 	(obj:0)
prodt_x_9_2_t_x_11_3_more_irrev2_3_2    -1.95254670887464 	(obj:0)
prodt_x_10_3_t_x_12_2_more_irrev2_3_2    -1.53046953150082 	(obj:0)
prodt_x_12_3_t_x_13_2_more_irrev2_3_2    -2.53415220002294 	(obj:0)
prodt_x_14_3_t_x_15_2_more_irrev2_3_2   -0.420601589922131 	(obj:0)
prodt_x_15_2_t_x_20_3_more_irrev2_3_2   -0.431386079700752 	(obj:0)
prodt_x_16_2_t_x_20_3_more_irrev2_3_2                   -1 	(obj:0)
SCIP Status        : solving was interrupted [time limit reached]
Total Time         :    3600.00
  solving          :    3600.00
  presolving       :       0.05 (included in solving)
  reading          :       0.00
  copying          :       1.65 (120 #copies) (minimal 0.00, maximal 0.02, average 0.01)
Original Problem   :
  Problem name     : ../instances/Pot4/Pot4_T_20B_1t.txt.spa
  Variables        : 101 (100 binary, 0 integer, 0 implicit integer, 1 continuous)
  Constraints      : 193 initial, 193 maximal
  Objective sense  : maximize
Presolved Problem  :
  Problem name     : t_../instances/Pot4/Pot4_T_20B_1t.txt.spa
  Variables        : 590 (92 binary, 0 integer, 16 implicit integer, 482 continuous)
  Constraints      : 2039 initial, 10439 maximal
Presolvers         :   ExecTime  SetupTime  Calls  FixedVars   AggrVars   ChgTypes  ChgBounds   AddHoles    DelCons    AddCons   ChgSides   ChgCoefs
  boundshift       :       0.00       0.00      0          0          0          0          0          0          0          0          0          0
  components       :       0.00       0.00      1          0          0          0          0          0          0          0          0          0
  convertinttobin  :       0.00       0.00      0          0          0          0          0          0          0          0          0          0
  domcol           :       0.01       0.00      1          0          0          0          0          0          0          0          0          0
  dualagg          :       0.00       0.00      0          0          0          0          0          0          0          0          0          0
  dualinfer        :       0.00       0.00      0          0          0          0          0          0          0          0          0          0
  gateextraction   :       0.00       0.00      3          0          0          0          0          0        108         34          0          0
  implfree         :       0.00       0.00      0          0          0          0          0          0          0          0          0          0
  implics          :       0.00       0.00      4          0          0          0          0          0          0          0          0          0
  inttobinary      :       0.00       0.00      0          0          0          0          0          0          0          0          0          0
  redvub           :       0.00       0.00      0          0          0          0          0          0          0          0          0          0
  stuffing         :       0.00       0.00      1          0          0          0          0          0          0          0          0          0
  trivial          :       0.00       0.00      7          0          0          0          0          0          0          0          0          0
  tworowbnd        :       0.00       0.00      0          0          0          0          0          0          0          0          0          0
  dualfix          :       0.00       0.00      7          4          0          0          0          0          0          0          0          0
  genvbounds       :       0.00       0.00      0          0          0          0          0          0          0          0          0          0
  probing          :       0.03       0.00      1          0          0          0          4          0          0          0          0          0
  pseudoobj        :       0.00       0.00      0          0          0          0          0          0          0          0          0          0
  varbound         :       0.00       0.00      9          0          0          0          0          0         28         28          0          0
  setppc           :       0.00       0.00     12          0          0          0          0          0          0          0          0          0
  and              :       0.00       0.00      4          0         12          0          0          0         12          0          0          0
  linear           :       0.01       0.00      9          3          1          0          4          0          7          0         12         12
  logicor          :       0.00       0.00      7          0          0          0          0          0          0          0          0          0
  bounddisjunction :       0.00       0.00      0          0          0          0          0          0          0          0          0          0
  quadratic        :       0.00       0.00      2          0          0          0          0          0          0       1939          0          0
  root node        :          -          -      -          1          -          -         82          -          -          -          -          -
Constraints        :     Number  MaxNumber  #Separate #Propagate    #EnfoLP    #EnfoPS     #Check   #ResProp    Cutoffs    DomReds       Cuts    Applied      Conss   Children
  integral         :          0          0          0          0    1941731          0     386247          0          0      34177          0          0         94    3842528
  varbound         :        893        893         86   11874834      17511          0     142658    4531066      75527   80868542          0          0          0          0
  setppc           :        110+      1079         86   11799022      17508          0       3631    2378666      15677    4879188         10          0          0          0
  and              :         22         22       1576      16698          0          0       2743     360514          1       1449         33         10          0          0
  linear           :        979        979         86   11783631      17511          0       2658    2086951     327742  120999197     965225     965021          0          0
  logicor          :         35+      1495         78    3163090          0          0          0      30408       3392     178256          2          2          0          0
  bounddisjunction :          0+      6610          0    5549122          0          0          0     928260      10846   10052263          0          0          0          0
  countsols        :          0          0          0          0          2          0     243585          0          0          0          0          0          0          0
Constraint Timings :  TotalTime  SetupTime   Separate  Propagate     EnfoLP     EnfoPS      Check    ResProp    SB-Prop
  integral         :      18.10       0.00       0.00       0.00      18.09       0.00       0.01       0.00       0.00
  varbound         :      73.22       0.00       0.00      71.15       0.11       0.00       0.98       0.84       0.14
  setppc           :      45.51       0.00       0.00      44.74       0.00       0.00       0.00       0.62       0.15
  and              :       0.15       0.00       0.00       0.01       0.00       0.00       0.00       0.14       0.00
  linear           :     210.49       0.00       0.01     207.86       0.91       0.00       0.03       1.40       0.28
  logicor          :      16.70       0.00       0.00      16.68       0.00       0.00       0.00       0.01       0.01
  bounddisjunction :     154.10       0.00       0.00     153.80       0.00       0.00       0.00       0.21       0.09
  countsols        :       0.00       0.00       0.00       0.00       0.00       0.00       0.00       0.00       0.00
Propagators        : #Propagate   #ResProp    Cutoffs    DomReds
  dualfix          :          2          0          0          0
  genvbounds       :          0          0          0          0
  obbt             :          0          0          0          0
  probing          :          0          0          0          0
  pseudoobj        :   12284932          0       5174         81
  redcost          :    4379659          0          0     859186
  rootredcost      :          3          0          0          0
  vbounds          :   13814905      19780          0        151
Propagator Timings :  TotalTime  SetupTime   Presolve  Propagate    ResProp    SB-Prop
  dualfix          :       0.00       0.00       0.00       0.00       0.00       0.00
  genvbounds       :       1.74       0.00       0.00       1.72       0.00       0.02
  obbt             :       0.00       0.00       0.00       0.00       0.00       0.00
  probing          :       0.03       0.00       0.03       0.00       0.00       0.00
  pseudoobj        :       3.90       0.00       0.00       3.89       0.00       0.01
  redcost          :      31.03       0.00       0.00      31.01       0.00       0.02
  rootredcost      :       2.20       0.00       0.00       2.20       0.00       0.00
  vbounds          :       4.94       0.00       0.00       4.92       0.01       0.01
Conflict Analysis  :       Time      Calls    Success    DomReds  Conflicts   Literals    Reconvs ReconvLits   LP Iters
  propagation      :       5.90     117529     116630          -    1250652       37.4      12962       43.3          -
  infeasible LP    :      13.89      90897      81350          -    1324995       39.5         91       15.3          0
  bound exceed. LP :       0.00          0          0          -          0        0.0          0        0.0          0
  strong branching :       0.00          0          0          -          0        0.0          0        0.0          0
  pseudo solution  :       0.00          0          0          -          0        0.0          0        0.0          -
  applied globally :       4.49          -          -          0     346364       19.6          -          -          -
  applied locally  :          -          -          -          0       4926       32.5          -          -          -
Separators         :   ExecTime  SetupTime      Calls    Cutoffs    DomReds       Cuts    Applied      Conss
  cut pool         :       0.00                    85          -          -       1426          -          -    (maximal pool size: 873)
  cgmip            :       0.00       0.00          0          0          0          0          0          0
  clique           :       0.00       0.00         86          0          0         53         24          0
  closecuts        :       0.00       0.00          0          0          0          0          0          0
  cmir             :       0.02       0.00         10          0          0        322        166          0
  disjunctive      :       0.00       0.00          0          0          0          0          0          0
  eccuts           :       0.00       0.00          0          0          0          0          0          0
  flowcover        :       0.11       0.00         15          0          0        258         21          0
  gomory           :       0.04       0.00         10          0          0          8          8          0
  impliedbounds    :       0.00       0.00         86          0          0        819        147          0
  intobj           :       0.00       0.00          0          0          0          0          0          0
  mcf              :       0.00       0.00          1          0          0          0          0          0
  oddcycle         :       0.00       0.00          0          0          0          0          0          0
  rapidlearning    :       0.00       0.00          0          0          0          0          0          0
  strongcg         :       0.03       0.00         20          0          0         15          4          0
  zerohalf         :       0.00       0.00          0          0          0          0          0          0
Pricers            :   ExecTime  SetupTime      Calls       Vars
  problem variables:       0.00          -          0          0
Branching Rules    :   ExecTime  SetupTime   BranchLP  BranchExt   BranchPS    Cutoffs    DomReds       Cuts      Conss   Children
  allfullstrong    :       0.00       0.00          0          0          0          0          0          0          0          0
  cloud            :       0.00       0.00          0          0          0          0          0          0          0          0
  distribution     :       0.00       0.00          0          0          0          0          0          0          0          0
  fullstrong       :       0.00       0.00          0          0          0          0          0          0          0          0
  inference        :       0.00       0.00          0          0          0          0          0          0          0          0
  leastinf         :       0.00       0.00          0          0          0          0          0          0          0          0
  mostinf          :       0.00       0.00          0          0          0          0          0          0          0          0
  multaggr         :       0.00       0.00          0          0          0          0          0          0          0          0
  nodereopt        :       0.00       0.00          0          0          0          0          0          0          0          0
  pscost           :       0.00       0.00          0          0          0          0          0          0          0          0
  random           :       0.00       0.00          0          0          0          0          0          0          0          0
  relpscost        :      17.20       0.00    1924220          0          0          0      34177          0       -908    3842528
Primal Heuristics  :   ExecTime  SetupTime      Calls      Found       Best
  LP solutions     :       0.00          -          -          2          -
  pseudo solutions :       0.00          -          -          0          -
  strong branching :       0.00          -          -          0          -
  SpaGreedy        :     305.09       0.00     243584          2          1
  actconsdiving    :       0.00       0.00          0          0          0
  bound            :       0.00       0.00          0          0          0
  clique           :       0.00       0.00          0          0          0
  coefdiving       :      37.14       0.00      11464          0          0
  crossover        :       1.03       0.00          0          0          0
  dins             :       0.00       0.00          0          0          0
  distributiondivin:      62.89       0.00      11463          0          0
  dualval          :       0.00       0.00          0          0          0
  feaspump         :      18.68       0.00       2382          0          0
  fixandinfer      :       0.00       0.00          0          0          0
  fracdiving       :      35.14       0.00      11463          0          0
  guideddiving     :      35.72       0.00      11463          0          0
  indicator        :       0.42       0.00          0          0          0
  intdiving        :       0.00       0.00          0          0          0
  intshifting      :       0.57       0.00        254          0          0
  linesearchdiving :      34.96       0.00      11463          0          0
  localbranching   :       0.00       0.00          0          0          0
  mutation         :       0.00       0.00          0          0          0
  nlpdiving        :       0.05       0.00          0          0          0
  objpscostdiving  :      18.75       0.00       2454          0          0
  octane           :       0.00       0.00          0          0          0
  ofins            :       0.00       0.00          0          0          0
  oneopt           :       0.63       0.00          2          0          0
  proximity        :       0.00       0.00          0          0          0
  pscostdiving     :      34.80       0.00      11463          0          0
  randrounding     :       1.59       0.00     139909          0          0
  rens             :       0.05       0.00          1          0          0
  reoptsols        :       0.00       0.00          0          0          0
  rins             :       5.19       0.00         97          0          0
  rootsoldiving    :      22.15       0.00       3588          0          0
  rounding         :       0.96       0.00      19428          0          0
  shiftandpropagate:       0.00       0.00          0          0          0
  shifting         :       1.67       0.00       5385          0          0
  simplerounding   :       0.49       0.00          0          0          0
  subnlp           :       0.54       0.00          0          0          0
  trivial          :       0.00       0.00          2          0          0
  trivialnegation  :       0.00       0.00          0          0          0
  trysol           :       0.61       0.00          0          0          0
  twoopt           :       0.00       0.00          0          0          0
  undercover       :       0.00       0.00          1          0          0
  vbounds          :       0.00       0.00          0          0          0
  veclendiving     :      40.17       0.00      11463          0          0
  zeroobj          :       0.00       0.00          0          0          0
  zirounding       :       0.52       0.00       1000          0          0
  other solutions  :          -          -          -          0          -
Diving Statistics  :      Calls      Nodes   LP Iters Backtracks   MinDepth   MaxDepth   AvgDepth  NLeafSols  MinSolDpt  MaxSolDpt  AvgSolDpt
  actconsdiving    :          0          -          -          -          -          -          -          -          -          -          -
  coefdiving       :      11464      83490     749670      15946         16         40       28.4          -          -          -          -
  distributiondivin:      11463      71364     743778      16930         15         38       27.5          -          -          -          -
  fracdiving       :      11463      79808     799312      17767         16         48       28.0          -          -          -          -
  guideddiving     :      11463      86434     788307      15809         19         50       28.9          -          -          -          -
  linesearchdiving :      11463      73025     762453      16438         16         37       27.5          -          -          -          -
  pscostdiving     :      11463      89121     769717      14647         16         49       29.1          -          -          -          -
  veclendiving     :      11463      82999     750292      21781         16         37       28.0          -          -          -          -
LP                 :       Time      Calls Iterations  Iter/call   Iter/sec  Time-0-It Calls-0-It
  primal LP        :       0.00         13          0       0.00          -       0.00         13
  dual LP          :    1430.06    3889496   58757052      18.55   41087.12      73.33     722681
  lex dual LP      :       0.00          0          0       0.00          -
  barrier LP       :       0.00          0          0       0.00          -       0.00          0
  diving/probing LP:     182.83     290546    7247802      24.95   39642.30
  strong branching :       5.89       4307     187039      43.43   31755.35
    (at root node) :          -         25       2802     112.08          -
  conflict analysis:       0.00          0          0       0.00          -
B&B Tree           :
  number of runs   :          1
  nodes            :    3618948 (1921264 internal, 1697684 leaves)
  nodes (total)    :    3618948 (1921264 internal, 1697684 leaves)
  nodes left       :     209205
  max depth        :         37
  max depth (total):         37
  backtracks       :     978455 (27.0%)
  delayed cutoffs  :      14262
  repropagations   :     178342 (4340278 domain reductions, 13265 cutoffs)
  avg switch length:       6.24
  switching time   :     561.44
Root Node          :
  First LP value   : +3.00000000000000e+00
  First LP Iters   :        402
  First LP Time    :       0.00
  Final Dual Bound : +5.79573385308313e-03
  Final Root Iters :       2290
Solution           :
  Solutions found  :          4 (3 improvements)
  First Solution   : +6.08190768000005e-04   (in run 1, after 1 nodes, 0.05 seconds, depth 0, found by <SpaGreedy>)
  Gap First Sol.   :   infinite
  Gap Last Sol.    :      70.65 %
  Primal Bound     : +6.18338129000965e-04   (in run 1, after 241298 nodes, 310.60 seconds, depth 31, found by <relaxation>)
  Dual Bound       : +8.66537922939236e-04
  Gap              :      40.14 %
  Avg. Gap         :      38.69 % (139267.12 primal-dual integral)
